50
150
98
98
98
96
93
93
92
91
90
90
87
87
86
85
83
82
81
78
78
75
75
74
74
72
72
71
70
69
68
66
61
60
60
59
57
53
51
42
40
40
35
34
34
31
30
30
24
22
21
20
